
;this file is automatically generated: Thu Jan 02 16:54:47 GMT 2020

;declarations generated

(declare-fun oclExcludes ( Int Int) Bool)
(declare-fun type_61190bbd_19f2_4611_8e90_71a1f71b2904_Class40 ( Int) Bool)
(declare-fun Cardinality ( Int) Int)
(declare-fun class40_Class40BoolAttr0 ( Int) Bool)
(declare-fun class40_Class40BoolAttr1 ( Int) Bool)
(declare-fun obj_506c25d7_d7e2_4f28_ba55_ba700f0b8281 ( Int) Int)
(declare-fun oclSelect ( Int Bool) Int)
(declare-fun Enum0 ( Int) Int)
(declare-fun Enum1 ( Int) Int)
(declare-fun Enum2 ( Int) Int)
(declare-fun container_ ( Int) Int)
(declare-fun oclIncludes ( Int Int) Bool)
(declare-fun ObjAt ( Int Int) Int)

;formula(s) generated
(assert (! (forall ((c1 Int)) (=> ( type_61190bbd_19f2_4611_8e90_71a1f71b2904_Class40 c1 )  (not ( class40_Class40BoolAttr1 ( obj_506c25d7_d7e2_4f28_ba55_ba700f0b8281 c1 )  )  ))):named l0))
(assert (! (or (forall ((v Int)) (=> ( type_61190bbd_19f2_4611_8e90_71a1f71b2904_Class40 v )  ( class40_Class40BoolAttr1 ( obj_506c25d7_d7e2_4f28_ba55_ba700f0b8281 v )  ) )) (forall ((v Int)) (=> ( type_61190bbd_19f2_4611_8e90_71a1f71b2904_Class40 v )  (and ( class40_Class40BoolAttr0 ( obj_506c25d7_d7e2_4f28_ba55_ba700f0b8281 v )  )  (and (forall ((v Int)) (=> ( type_61190bbd_19f2_4611_8e90_71a1f71b2904_Class40 v )  ( class40_Class40BoolAttr0 ( obj_506c25d7_d7e2_4f28_ba55_ba700f0b8281 v )  ) )) (forall ((v Int)) (=> ( type_61190bbd_19f2_4611_8e90_71a1f71b2904_Class40 v )  ( class40_Class40BoolAttr1 ( obj_506c25d7_d7e2_4f28_ba55_ba700f0b8281 v )  ) ))))))):named l1))
(assert (exists ((o Int)) ( type_61190bbd_19f2_4611_8e90_71a1f71b2904_Class40 ( obj_506c25d7_d7e2_4f28_ba55_ba700f0b8281 o )  ) ))

 ;end of formula 